NAME : X-n251-k28
COMMENT : "Generated by Uchoa, Pecin, Pessoa, Poggi, Subramanian, and Vidal (2013)"
TYPE : CVRP
DIMENSION : 251
EDGE_WEIGHT_TYPE : EUC_2D
CAPACITY : 69
NODE_COORD_SECTION
1 112 700
2 363 779
3 245 896
4 238 19
5 184 351
6 305 763
7 366 814
8 137 857
9 564 31
10 303 157
11 523 830
12 134 231
13 851 445
14 740 311
15 163 95
16 275 499
17 470 814
18 453 217
19 818 525
20 311 911
21 177 374
22 230 4
23 590 302
24 196 103
25 553 879
26 316 446
27 665 375
28 587 609
29 510 95
30 907 455
31 805 956
32 342 345
33 785 309
34 649 584
35 850 24
36 26 126
37 447 817
38 145 527
39 218 825
40 405 151
41 389 436
42 452 619
43 407 367
44 948 514
45 836 996
46 578 334
47 491 929
48 325 696
49 838 842
50 983 788
51 623 549
52 915 72
53 774 336
54 81 238
55 534 537
56 295 406
57 853 358
58 742 581
59 32 964
60 747 352
61 610 799
62 786 853
63 506 168
64 755 957
65 408 67
66 485 734
67 419 256
68 508 155
69 941 589
70 68 42
71 817 595
72 397 274
73 727 302
74 216 237
75 821 320
76 516 531
77 614 163
78 561 920
79 128 834
80 162 534
81 279 644
82 188 329
83 520 301
84 336 782
85 728 230
86 139 848
87 350 154
88 242 162
89 791 925
90 907 497
91 52 593
92 786 457
93 629 745
94 935 439
95 641 78
96 78 835
97 232 226
98 123 479
99 205 840
100 932 357
101 917 917
102 325 559
103 413 373
104 362 477
105 827 881
106 845 263
107 11 938
108 88 535
109 436 200
110 940 319
111 325 59
112 34 264
113 47 470
114 322 89
115 757 29
116 825 289
117 287 304
118 657 82
119 288 406
120 287 623
121 616 828
122 60 445
123 978 511
124 956 171
125 818 184
126 605 464
127 462 934
128 563 229
129 506 33
130 599 895
131 364 90
132 504 28
133 304 854
134 525 226
135 753 926
136 544 127
137 343 127
138 422 270
139 472 104
140 453 844
141 493 36
142 526 137
143 230 995
144 675 278
145 495 428
146 535 57
147 684 158
148 446 37
149 507 67
150 654 332
151 585 226
152 526 932
153 479 288
154 708 108
155 588 159
156 473 898
157 618 85
158 433 373
159 409 207
160 488 29
161 531 204
162 546 212
163 470 925
164 534 887
165 770 74
166 546 47
167 612 177
168 565 128
169 597 299
170 630 398
171 433 936
172 538 29
173 524 66
174 559 181
175 326 841
176 533 86
177 470 27
178 503 136
179 557 307
180 350 13
181 720 957
182 515 103
183 577 95
184 496 204
185 482 329
186 338 918
187 427 792
188 441 297
189 764 238
190 504 147
191 488 66
192 509 204
193 575 226
194 596 931
195 578 922
196 496 161
197 361 962
198 539 869
199 460 149
200 468 807
201 448 49
202 609 100
203 537 7
204 537 228
205 697 29
206 440 120
207 400 190
208 469 264
209 425 950
210 562 167
211 523 61
212 572 82
213 423 903
214 451 908
215 513 236
216 440 203
217 628 934
218 632 84
219 528 30
220 490 1
221 508 184
222 635 25
223 490 104
224 528 2
225 434 938
226 482 957
227 457 847
228 453 24
229 495 287
230 183 354
231 563 201
232 444 930
233 814 278
234 359 893
235 498 49
236 521 240
237 598 325
238 557 228
239 552 367
240 665 287
241 549 277
242 474 937
243 499 922
244 522 337
245 442 130
246 559 398
247 498 46
248 564 162
249 524 193
250 515 935
251 605 773
PICKUP_AND_DELIVERY_SECTION
1 0 0 1000000000 0 0 0
2 0 0 1000000000 0 0 5
3 0 0 1000000000 0 0 7
4 0 0 1000000000 0 0 5
5 0 0 1000000000 0 8 0
6 0 0 1000000000 0 0 7
7 0 0 1000000000 0 0 8
8 0 0 1000000000 0 0 7
9 0 0 1000000000 0 9 0
10 0 0 1000000000 0 0 7
11 0 0 1000000000 0 0 6
12 0 0 1000000000 0 0 7
13 0 0 1000000000 0 8 0
14 0 0 1000000000 0 0 6
15 0 0 1000000000 0 0 9
16 0 0 1000000000 0 0 8
17 0 0 1000000000 0 8 0
18 0 0 1000000000 0 0 9
19 0 0 1000000000 0 0 6
20 0 0 1000000000 0 0 8
21 0 0 1000000000 0 5 0
22 0 0 1000000000 0 0 6
23 0 0 1000000000 0 0 7
24 0 0 1000000000 0 0 7
25 0 0 1000000000 0 6 0
26 0 0 1000000000 0 0 9
27 0 0 1000000000 0 0 6
28 0 0 1000000000 0 0 7
29 0 0 1000000000 0 10 0
30 0 0 1000000000 0 0 9
31 0 0 1000000000 0 0 5
32 0 0 1000000000 0 0 10
33 0 0 1000000000 0 10 0
34 0 0 1000000000 0 0 9
35 0 0 1000000000 0 0 5
36 0 0 1000000000 0 0 7
37 0 0 1000000000 0 6 0
38 0 0 1000000000 0 0 9
39 0 0 1000000000 0 0 8
40 0 0 1000000000 0 0 9
41 0 0 1000000000 0 6 0
42 0 0 1000000000 0 0 5
43 0 0 1000000000 0 0 8
44 0 0 1000000000 0 0 6
45 0 0 1000000000 0 5 0
46 0 0 1000000000 0 0 5
47 0 0 1000000000 0 0 5
48 0 0 1000000000 0 0 7
49 0 0 1000000000 0 5 0
50 0 0 1000000000 0 0 7
51 0 0 1000000000 0 0 7
52 0 0 1000000000 0 0 8
53 0 0 1000000000 0 9 0
54 0 0 1000000000 0 0 10
55 0 0 1000000000 0 0 5
56 0 0 1000000000 0 0 10
57 0 0 1000000000 0 10 0
58 0 0 1000000000 0 0 9
59 0 0 1000000000 0 0 8
60 0 0 1000000000 0 0 9
61 0 0 1000000000 0 7 0
62 0 0 1000000000 0 0 10
63 0 0 1000000000 0 0 10
64 0 0 1000000000 0 0 6
65 0 0 1000000000 0 9 0
66 0 0 1000000000 0 0 8
67 0 0 1000000000 0 0 9
68 0 0 1000000000 0 0 7
69 0 0 1000000000 0 5 0
70 0 0 1000000000 0 0 8
71 0 0 1000000000 0 0 10
72 0 0 1000000000 0 0 9
73 0 0 1000000000 0 7 0
74 0 0 1000000000 0 0 8
75 0 0 1000000000 0 0 9
76 0 0 1000000000 0 0 5
77 0 0 1000000000 0 10 0
78 0 0 1000000000 0 0 8
79 0 0 1000000000 0 0 9
80 0 0 1000000000 0 0 9
81 0 0 1000000000 0 8 0
82 0 0 1000000000 0 0 9
83 0 0 1000000000 0 0 8
84 0 0 1000000000 0 0 10
85 0 0 1000000000 0 5 0
86 0 0 1000000000 0 0 10
87 0 0 1000000000 0 0 6
88 0 0 1000000000 0 0 10
89 0 0 1000000000 0 7 0
90 0 0 1000000000 0 0 8
91 0 0 1000000000 0 0 5
92 0 0 1000000000 0 0 7
93 0 0 1000000000 0 7 0
94 0 0 1000000000 0 0 5
95 0 0 1000000000 0 0 5
96 0 0 1000000000 0 0 7
97 0 0 1000000000 0 5 0
98 0 0 1000000000 0 0 9
99 0 0 1000000000 0 0 6
100 0 0 1000000000 0 0 10
101 0 0 1000000000 0 5 0
102 0 0 1000000000 0 0 7
103 0 0 1000000000 0 0 5
104 0 0 1000000000 0 0 5
105 0 0 1000000000 0 6 0
106 0 0 1000000000 0 0 5
107 0 0 1000000000 0 0 9
108 0 0 1000000000 0 0 7
109 0 0 1000000000 0 6 0
110 0 0 1000000000 0 0 8
111 0 0 1000000000 0 0 7
112 0 0 1000000000 0 0 6
113 0 0 1000000000 0 6 0
114 0 0 1000000000 0 0 6
115 0 0 1000000000 0 0 9
116 0 0 1000000000 0 0 7
117 0 0 1000000000 0 8 0
118 0 0 1000000000 0 0 9
119 0 0 1000000000 0 0 9
120 0 0 1000000000 0 0 8
121 0 0 1000000000 0 8 0
122 0 0 1000000000 0 0 9
123 0 0 1000000000 0 0 5
124 0 0 1000000000 0 0 10
125 0 0 1000000000 0 5 0
126 0 0 1000000000 0 0 6
127 0 0 1000000000 0 0 10
128 0 0 1000000000 0 0 7
129 0 0 1000000000 0 10 0
130 0 0 1000000000 0 0 8
131 0 0 1000000000 0 0 9
132 0 0 1000000000 0 0 5
133 0 0 1000000000 0 10 0
134 0 0 1000000000 0 0 5
135 0 0 1000000000 0 0 9
136 0 0 1000000000 0 0 5
137 0 0 1000000000 0 10 0
138 0 0 1000000000 0 0 5
139 0 0 1000000000 0 0 9
140 0 0 1000000000 0 0 10
141 0 0 1000000000 0 9 0
142 0 0 1000000000 0 0 9
143 0 0 1000000000 0 0 8
144 0 0 1000000000 0 0 7
145 0 0 1000000000 0 10 0
146 0 0 1000000000 0 0 5
147 0 0 1000000000 0 0 5
148 0 0 1000000000 0 0 8
149 0 0 1000000000 0 7 0
150 0 0 1000000000 0 0 8
151 0 0 1000000000 0 0 6
152 0 0 1000000000 0 0 9
153 0 0 1000000000 0 6 0
154 0 0 1000000000 0 0 7
155 0 0 1000000000 0 0 9
156 0 0 1000000000 0 0 9
157 0 0 1000000000 0 5 0
158 0 0 1000000000 0 0 10
159 0 0 1000000000 0 0 5
160 0 0 1000000000 0 0 8
161 0 0 1000000000 0 6 0
162 0 0 1000000000 0 0 7
163 0 0 1000000000 0 0 9
164 0 0 1000000000 0 0 9
165 0 0 1000000000 0 5 0
166 0 0 1000000000 0 0 8
167 0 0 1000000000 0 0 9
168 0 0 1000000000 0 0 8
169 0 0 1000000000 0 10 0
170 0 0 1000000000 0 0 9
171 0 0 1000000000 0 0 5
172 0 0 1000000000 0 0 5
173 0 0 1000000000 0 8 0
174 0 0 1000000000 0 0 10
175 0 0 1000000000 0 0 5
176 0 0 1000000000 0 0 10
177 0 0 1000000000 0 7 0
178 0 0 1000000000 0 0 8
179 0 0 1000000000 0 0 10
180 0 0 1000000000 0 0 9
181 0 0 1000000000 0 6 0
182 0 0 1000000000 0 0 9
183 0 0 1000000000 0 0 5
184 0 0 1000000000 0 0 7
185 0 0 1000000000 0 7 0
186 0 0 1000000000 0 0 10
187 0 0 1000000000 0 0 6
188 0 0 1000000000 0 0 8
189 0 0 1000000000 0 8 0
190 0 0 1000000000 0 0 5
191 0 0 1000000000 0 0 8
192 0 0 1000000000 0 0 8
193 0 0 1000000000 0 10 0
194 0 0 1000000000 0 0 8
195 0 0 1000000000 0 0 5
196 0 0 1000000000 0 0 5
197 0 0 1000000000 0 9 0
198 0 0 1000000000 0 0 7
199 0 0 1000000000 0 0 8
200 0 0 1000000000 0 0 9
201 0 0 1000000000 0 7 0
202 0 0 1000000000 0 0 7
203 0 0 1000000000 0 0 9
204 0 0 1000000000 0 0 6
205 0 0 1000000000 0 6 0
206 0 0 1000000000 0 0 10
207 0 0 1000000000 0 0 8
208 0 0 1000000000 0 0 10
209 0 0 1000000000 0 9 0
210 0 0 1000000000 0 0 10
211 0 0 1000000000 0 0 6
212 0 0 1000000000 0 0 8
213 0 0 1000000000 0 7 0
214 0 0 1000000000 0 0 7
215 0 0 1000000000 0 0 6
216 0 0 1000000000 0 0 9
217 0 0 1000000000 0 10 0
218 0 0 1000000000 0 0 8
219 0 0 1000000000 0 0 8
220 0 0 1000000000 0 0 8
221 0 0 1000000000 0 6 0
222 0 0 1000000000 0 0 6
223 0 0 1000000000 0 0 8
224 0 0 1000000000 0 0 8
225 0 0 1000000000 0 9 0
226 0 0 1000000000 0 0 6
227 0 0 1000000000 0 0 5
228 0 0 1000000000 0 0 5
229 0 0 1000000000 0 7 0
230 0 0 1000000000 0 0 7
231 0 0 1000000000 0 0 10
232 0 0 1000000000 0 0 8
233 0 0 1000000000 0 6 0
234 0 0 1000000000 0 0 7
235 0 0 1000000000 0 0 10
236 0 0 1000000000 0 0 6
237 0 0 1000000000 0 5 0
238 0 0 1000000000 0 0 7
239 0 0 1000000000 0 0 8
240 0 0 1000000000 0 0 7
241 0 0 1000000000 0 8 0
242 0 0 1000000000 0 0 7
243 0 0 1000000000 0 0 6
244 0 0 1000000000 0 0 8
245 0 0 1000000000 0 6 0
246 0 0 1000000000 0 0 6
247 0 0 1000000000 0 0 6
248 0 0 1000000000 0 0 9
249 0 0 1000000000 0 9 0
250 0 0 1000000000 0 0 7
251 0 0 1000000000 0 0 5
